c Output_time 26.03.2020 18:15:31_+0100 1585242931531189341
c ** Program information **
c program_name                          "QBRG_debug"
c version                               "0.3.20"
c date                                  "25.3.2020"
c gid_id                                "673970833836058123f633335630c185360d632e"
c author                                "Oliver Kullmann"
c url                                   "https://github.com/OKullmann/oklibrary/blob/master/Satisfiability/Transformers/Generators/Random/QBRG.cpp"
c ** Machine information **
c machine_name                          "chyna-Lenovo-G50-70"
c bogomips                              3791.08
c ** Compilation information **
c compiler_version                      "g++ 7.5.0"
c compilation_date                      "Mar_26_2020 11:16:30"
c compilation_options                   "--std=c++17 -pedantic -fmax-errors=5 -Wall -Wextra -g -D_GLIBCXX_DEBUG"
c NDEBUG                                0
c OPTIMIZE                              0
c ** Parameters **
c command-line                          "./QBRG_debug" "a40 e40 a40 40" "607*1,1|2-2,1|3-3,1|4-4,1" "" "1,t" ""
c output                                "QuBlRaGe_160_607_1585242931531026722.qdimacs"
c options                               "filtered,renamed"
c num_quantifier_blocks                 4
c  quantifier_blocks                    1:a1-40 2:e41-80 3:a81-120 4:e121-160
c num_clause-blocks                     1
c  clause-blocks                        607 * {1-40,1,1/2} | {41-80,1,1/2} | {81-120,1,1/2} | {121-160,1,1/2}
c num_e-seeds                           37+2=39
c  e-seeds                              1 0 1 0 5 160 2 40 0 40 1 40 0 40 1 607 4 1 1 1 1 2 2 2 1 1 2 3 3 1 1 2 4 4 1 1 2 1 1585242931531025743
p cnf 160 607
a 1 2 3 4 5 6 7 8 9 10 11 12 13 14 15 16 17 18 19 20 21 22 23 24 25 26 27 28 29 30 31 32 33 34 35 36 37 38 39 40 0
e 41 42 43 44 45 46 47 48 49 50 51 52 53 54 55 56 57 58 59 60 61 62 63 64 65 66 67 68 69 70 71 72 73 74 75 76 77 78 79 80 0
a 81 82 83 84 85 86 87 88 89 90 91 92 93 94 95 96 97 98 99 100 101 102 103 104 105 106 107 108 109 110 111 112 113 114 115 116 117 118 119 120 0
e 121 122 123 124 125 126 127 128 129 130 131 132 133 134 135 136 137 138 139 140 141 142 143 144 145 146 147 148 149 150 151 152 153 154 155 156 157 158 159 160 0
15 56 -85 -121 0
-17 75 86 -121 0
14 -46 -87 -121 0
22 -73 -119 -121 0
11 57 -82 121 0
-28 80 83 121 0
-24 -69 -90 121 0
-4 59 91 121 0
36 77 92 121 0
-26 -55 -93 121 0
-33 72 102 121 0
-23 -77 111 121 0
13 -50 -92 -122 0
-25 65 -106 -122 0
-5 -74 -112 -122 0
-25 56 113 -122 0
39 70 -114 -122 0
26 42 81 122 0
28 -72 -86 122 0
-20 72 108 122 0
24 77 114 122 0
18 49 -117 122 0
-13 -55 -81 -123 0
-20 -43 83 -123 0
-11 58 86 -123 0
-8 76 86 -123 0
-26 50 -97 -123 0
-37 57 101 -123 0
-32 -57 -114 -123 0
-20 45 114 -123 0
-3 -71 -117 -123 0
5 66 -119 -123 0
-6 -43 84 123 0
-40 -69 86 123 0
34 -71 90 123 0
-28 49 -95 123 0
8 57 105 123 0
38 -52 -110 123 0
12 69 -112 123 0
30 71 -81 -124 0
14 44 83 -124 0
16 -74 -97 -124 0
-33 -49 -99 -124 0
9 52 105 -124 0
1 -68 105 -124 0
-2 -73 -113 -124 0
13 74 119 -124 0
-37 -75 -89 124 0
-2 -65 97 124 0
10 -58 105 124 0
19 -48 -109 124 0
35 -66 -114 124 0
-11 -79 -116 124 0
-15 -51 91 -125 0
37 59 93 -125 0
-21 -77 95 -125 0
13 68 98 -125 0
-3 41 -100 -125 0
24 58 -102 -125 0
7 49 104 -125 0
-1 71 104 -125 0
-14 70 107 -125 0
-38 42 110 -125 0
-18 46 -113 -125 0
18 53 113 -125 0
-23 -64 82 125 0
13 75 92 125 0
-40 56 -94 125 0
32 41 95 125 0
-30 -74 96 125 0
-3 -71 107 125 0
-40 -73 113 125 0
-3 56 -81 -126 0
14 -50 -86 -126 0
22 58 -91 -126 0
-5 60 -93 -126 0
2 51 -98 -126 0
-19 -69 -101 -126 0
-39 -77 101 -126 0
-39 -45 105 -126 0
-13 78 106 -126 0
37 50 115 -126 0
38 -80 -118 -126 0
-9 -41 -82 126 0
7 -67 82 126 0
29 54 -93 126 0
-22 -58 -94 126 0
27 -46 98 126 0
-23 79 -100 126 0
33 46 -107 126 0
-4 47 -120 126 0
-24 53 87 -127 0
-35 -46 -88 -127 0
36 71 -88 -127 0
21 -42 -98 -127 0
10 73 -98 -127 0
3 -50 -101 -127 0
-2 -51 106 -127 0
19 78 -112 -127 0
-25 -75 114 -127 0
22 67 -85 127 0
26 -72 88 127 0
2 -73 -103 127 0
39 -78 103 127 0
-13 -58 -109 127 0
-39 57 -113 127 0
9 -57 113 127 0
-13 -47 85 -128 0
33 70 -89 -128 0
18 -44 103 -128 0
36 -69 110 -128 0
23 -41 113 -128 0
26 -75 -82 128 0
26 44 -90 128 0
-11 45 92 128 0
-18 -54 -93 128 0
-23 -45 93 128 0
-17 59 -101 128 0
-16 67 106 128 0
-4 -60 114 128 0
-16 -73 84 -129 0
-29 -79 -90 -129 0
-4 -56 -91 -129 0
39 -47 -92 -129 0
-37 44 105 -129 0
3 -53 -83 129 0
-2 52 94 129 0
-12 73 98 129 0
26 57 102 129 0
-4 -78 116 129 0
-28 -42 81 -130 0
35 67 81 -130 0
-13 66 84 -130 0
-5 -69 -89 -130 0
18 -48 -93 -130 0
-26 53 95 -130 0
1 72 112 -130 0
-25 -63 114 -130 0
-21 42 -120 -130 0
-14 -62 -90 130 0
24 -71 90 130 0
-35 -72 -94 130 0
-31 -78 -101 130 0
-14 65 -111 130 0
19 79 118 130 0
-14 51 120 130 0
15 66 -84 -131 0
-24 -68 87 -131 0
-18 -47 101 -131 0
-6 61 -112 -131 0
8 -79 -112 -131 0
36 54 -84 131 0
-25 60 -100 131 0
15 -52 -107 131 0
-24 -61 -109 131 0
40 79 -111 131 0
4 66 -87 -132 0
-11 -63 94 -132 0
10 67 103 -132 0
-4 69 -113 -132 0
-24 -66 81 132 0
18 -59 88 132 0
-2 61 -97 132 0
21 45 99 132 0
-31 -68 109 132 0
-31 -66 -110 132 0
-22 62 -119 132 0
15 -76 119 132 0
1 -74 120 132 0
-19 -50 -82 -133 0
-37 -66 -88 -133 0
20 78 -96 -133 0
-24 49 -117 -133 0
-29 -57 -85 133 0
-37 -67 -87 133 0
-29 46 90 133 0
-34 -47 -91 133 0
-22 74 -95 133 0
-21 44 100 133 0
12 51 -104 133 0
19 67 -107 133 0
-12 -78 -109 133 0
-37 41 -119 133 0
-37 42 85 -134 0
-27 -43 89 -134 0
24 69 -91 -134 0
-21 -64 -108 -134 0
-33 66 -110 -134 0
-25 -64 -115 -134 0
13 -46 -87 134 0
13 80 87 134 0
34 80 -114 134 0
-11 -57 81 -135 0
-27 -80 88 -135 0
6 -74 -101 -135 0
23 -68 -102 -135 0
-29 75 -105 -135 0
-26 80 109 -135 0
-38 -59 111 -135 0
-11 -69 114 -135 0
-17 -44 -115 -135 0
-11 -48 -117 -135 0
3 -45 120 -135 0
-6 48 -84 135 0
-6 -48 88 135 0
-19 -54 -99 135 0
34 67 104 135 0
13 76 -110 135 0
22 -51 119 135 0
10 -68 -81 -136 0
1 -76 86 -136 0
-20 42 -87 -136 0
-19 -48 -92 -136 0
-35 -67 -117 -136 0
27 -67 90 136 0
8 66 99 136 0
-26 -44 -81 -137 0
-7 -73 85 -137 0
2 -47 -86 -137 0
-18 -54 -93 -137 0
21 -79 94 -137 0
-40 70 -107 -137 0
-16 42 -114 -137 0
23 50 115 -137 0
-19 57 -116 -137 0
37 55 -117 -137 0
-36 -59 -117 -137 0
38 74 -81 137 0
-22 62 83 137 0
-40 67 83 137 0
-33 46 90 137 0
4 42 94 137 0
-2 78 94 137 0
-12 -68 -101 137 0
-28 59 104 137 0
-21 -46 -106 137 0
-3 -72 106 137 0
-13 77 110 137 0
30 -49 120 137 0
38 -68 85 -138 0
2 -45 88 -138 0
-26 54 -89 -138 0
-25 -53 92 -138 0
-7 49 -95 -138 0
6 -72 102 -138 0
23 -65 103 -138 0
-7 -77 103 -138 0
-3 44 -106 -138 0
-5 54 -107 -138 0
-38 67 -108 -138 0
17 -68 112 -138 0
-32 -53 116 -138 0
-13 -58 -88 138 0
-37 41 -89 138 0
-14 -62 92 138 0
-30 52 95 138 0
5 -67 -103 138 0
31 51 108 138 0
15 -70 -112 138 0
19 44 -113 138 0
-10 -46 -119 138 0
-16 60 119 138 0
-33 70 82 -139 0
-5 70 86 -139 0
1 -74 -87 -139 0
-38 -59 95 -139 0
-37 -74 -99 -139 0
7 -75 -106 -139 0
-36 65 -110 -139 0
13 44 115 -139 0
-33 -71 115 -139 0
-31 52 -117 -139 0
-40 75 -82 139 0
40 43 82 139 0
38 44 82 139 0
29 73 -86 139 0
11 -42 87 139 0
34 -66 -88 139 0
21 75 88 139 0
-24 -71 -94 139 0
28 49 -96 139 0
-14 -66 -97 139 0
-14 -42 115 139 0
-20 -54 82 -140 0
-13 -54 85 -140 0
4 -55 -90 -140 0
24 -65 -90 -140 0
-10 -43 92 -140 0
-19 63 95 -140 0
27 60 97 -140 0
-12 52 100 -140 0
31 75 -107 -140 0
-7 -80 -107 -140 0
-18 45 107 -140 0
-35 62 116 -140 0
-26 -58 -117 -140 0
11 76 120 -140 0
-6 53 -82 140 0
19 73 84 140 0
20 -43 88 140 0
31 -49 90 140 0
-39 -44 99 140 0
-38 -59 -107 140 0
-3 45 109 140 0
25 77 117 140 0
-12 -65 118 140 0
-31 -58 -119 140 0
7 65 83 -141 0
-29 -43 84 -141 0
2 -45 85 -141 0
-6 55 94 -141 0
33 -73 98 -141 0
-9 62 107 -141 0
6 65 107 -141 0
5 -59 -109 -141 0
-40 53 113 -141 0
28 71 114 -141 0
17 75 -116 -141 0
7 -73 -119 -141 0
40 44 -87 141 0
6 -64 -90 141 0
-10 48 106 141 0
-17 -68 117 141 0
-2 59 -120 141 0
-28 79 -81 -142 0
-36 76 84 -142 0
16 43 85 -142 0
21 41 102 -142 0
-12 70 -94 142 0
30 65 110 142 0
20 66 116 142 0
27 67 -81 -143 0
33 48 -88 -143 0
-23 59 -90 -143 0
18 -69 90 -143 0
-10 -48 93 -143 0
-10 69 97 -143 0
40 -69 -102 -143 0
15 -76 103 -143 0
-29 -79 -109 -143 0
-15 78 81 143 0
-31 55 86 143 0
-16 79 86 143 0
23 -42 -87 143 0
-24 -48 91 143 0
8 59 97 143 0
-24 -73 -99 143 0
-6 -47 103 143 0
19 75 113 143 0
-26 -53 -118 143 0
-16 -57 88 -144 0
24 -61 95 -144 0
40 55 -96 -144 0
-19 51 99 -144 0
7 41 109 -144 0
12 -60 110 -144 0
-2 -73 -85 144 0
13 -58 -89 144 0
33 75 90 144 0
4 -77 97 144 0
-12 60 103 144 0
16 -69 111 144 0
26 -76 114 144 0
-25 76 81 -145 0
-15 -48 -84 -145 0
-9 -59 -84 -145 0
-13 58 -86 -145 0
-16 -64 -93 -145 0
15 52 93 -145 0
26 75 99 -145 0
24 60 -107 -145 0
-34 -66 -107 -145 0
6 -77 -109 -145 0
11 -42 -112 -145 0
27 -74 113 -145 0
21 -52 118 -145 0
-40 -66 -89 145 0
-28 -69 90 145 0
8 -42 -91 145 0
-15 -80 91 145 0
-23 -60 92 145 0
26 68 -93 145 0
-17 -56 97 145 0
11 71 105 145 0
-16 -58 114 145 0
-7 64 118 145 0
16 -72 -120 145 0
-24 -41 120 145 0
8 -58 -103 -146 0
-6 -61 -104 -146 0
-27 54 -112 -146 0
39 75 115 -146 0
-36 -53 -117 -146 0
-1 -62 -102 146 0
28 50 105 146 0
-10 -48 -118 146 0
-3 -49 -81 -147 0
-10 -47 84 -147 0
-25 48 90 -147 0
-22 60 95 -147 0
-18 -56 105 -147 0
22 68 107 -147 0
-36 -55 -109 -147 0
-15 -67 111 -147 0
20 44 -83 147 0
-38 -61 86 147 0
7 -56 98 147 0
-28 61 -102 147 0
2 54 -106 147 0
22 -46 108 147 0
-10 65 113 147 0
-30 52 117 147 0
-40 55 -96 -148 0
10 -47 105 -148 0
3 61 106 -148 0
10 80 109 -148 0
25 -73 -115 -148 0
-21 53 118 -148 0
6 63 -81 148 0
31 -72 -81 148 0
10 -46 -90 148 0
31 -63 -98 148 0
20 -58 -100 148 0
-38 -80 -100 148 0
32 -53 -104 148 0
28 -52 104 148 0
36 43 -105 148 0
-14 -54 -105 148 0
40 -48 108 148 0
-30 -48 -109 148 0
-23 54 -109 148 0
3 -57 -109 148 0
36 -62 -109 148 0
18 -61 -110 148 0
20 -67 -83 -149 0
-19 -68 -104 -149 0
-40 80 116 -149 0
27 55 100 149 0
12 76 101 149 0
-17 71 -105 149 0
19 -62 113 149 0
-21 78 113 149 0
13 -79 -116 149 0
-15 -57 -117 149 0
-4 -68 -94 -150 0
-32 42 -100 -150 0
24 -72 101 -150 0
39 51 -102 -150 0
-1 70 104 -150 0
-2 56 -116 -150 0
6 -60 81 150 0
7 -72 86 150 0
-21 -52 92 150 0
-38 -73 -98 150 0
-39 47 -110 150 0
-35 -42 88 -151 0
13 -62 -97 -151 0
7 -73 -116 -151 0
2 -66 120 -151 0
29 79 82 151 0
-26 58 -83 151 0
-6 41 -87 151 0
12 64 92 151 0
-12 -80 -95 151 0
34 -46 -114 151 0
22 -64 85 -152 0
3 -61 -87 -152 0
-32 50 -102 -152 0
27 55 107 -152 0
-1 -49 -111 -152 0
28 -44 112 -152 0
-40 43 114 -152 0
-36 46 -115 -152 0
-3 -65 -118 -152 0
14 -65 -83 152 0
-3 55 -88 152 0
5 47 105 152 0
3 -66 -112 152 0
-38 69 93 -153 0
-9 -53 -106 -153 0
2 -69 -106 -153 0
-14 68 -120 -153 0
-28 78 81 153 0
-13 -53 -82 153 0
15 58 95 153 0
11 -58 -106 153 0
-4 -54 -107 153 0
-13 -59 -108 153 0
-39 -44 -120 153 0
27 76 -83 -154 0
-3 74 95 -154 0
8 -76 95 -154 0
-6 -70 -98 -154 0
-3 58 102 -154 0
-28 61 103 -154 0
-33 60 -118 -154 0
22 -61 119 -154 0
-8 54 86 154 0
-16 -45 102 154 0
-37 49 102 154 0
4 49 -104 154 0
-13 -49 82 -155 0
-21 67 85 -155 0
17 -63 -91 -155 0
-18 -55 -94 -155 0
-8 -64 101 -155 0
33 71 106 -155 0
11 -73 -107 -155 0
-40 -69 107 -155 0
-29 53 -112 -155 0
-19 41 115 -155 0
1 -77 -120 -155 0
1 -54 81 155 0
34 -65 -87 155 0
-40 71 89 155 0
-18 66 97 155 0
1 48 -99 155 0
-37 -44 -101 155 0
-33 64 109 155 0
-19 -57 -115 155 0
34 -74 -92 -156 0
-31 60 -101 -156 0
-1 -64 -107 -156 0
40 -67 -111 -156 0
-19 -64 -115 -156 0
-15 77 82 156 0
26 58 -86 156 0
-10 75 -87 156 0
3 44 -92 156 0
-13 42 94 156 0
27 49 -95 156 0
-17 -44 -96 156 0
3 -75 96 156 0
7 -67 -98 156 0
-29 47 99 156 0
-24 42 -109 156 0
-40 -54 -113 156 0
2 48 114 156 0
14 -52 119 156 0
37 -45 -120 156 0
14 -47 -82 -157 0
-34 45 -104 -157 0
40 45 -109 -157 0
-1 -73 -117 -157 0
-21 -73 -117 -157 0
19 -54 119 -157 0
12 -42 -81 157 0
24 60 -83 157 0
4 -62 85 157 0
5 -57 -97 157 0
5 74 -97 157 0
-24 -61 106 157 0
-22 65 -110 157 0
-15 72 110 157 0
-7 49 -83 -158 0
11 70 86 -158 0
8 77 90 -158 0
-14 -71 93 -158 0
19 69 -96 -158 0
-19 77 -96 -158 0
-39 -80 -99 -158 0
23 -67 -103 -158 0
27 -62 105 -158 0
-12 42 -114 -158 0
32 73 -115 -158 0
2 60 -82 158 0
21 78 82 158 0
32 -52 86 158 0
34 -56 -94 158 0
-20 -73 116 158 0
30 -80 87 -159 0
14 -72 88 -159 0
15 -73 90 -159 0
-40 55 95 -159 0
-12 71 95 -159 0
-2 63 96 -159 0
33 -52 -97 -159 0
24 -60 -98 -159 0
24 72 -107 -159 0
22 42 -114 -159 0
16 -45 -114 -159 0
37 -45 116 -159 0
-9 62 -88 159 0
-32 -43 95 159 0
-11 -45 96 159 0
21 -80 97 159 0
12 -57 111 159 0
-18 -66 115 159 0
23 61 -86 -160 0
25 76 -87 -160 0
27 55 91 -160 0
15 68 93 -160 0
14 -80 101 -160 0
15 -49 -104 -160 0
-16 50 -109 -160 0
-21 -75 -111 -160 0
3 -58 113 -160 0
38 -50 -84 160 0
3 -59 88 160 0
16 78 89 160 0
7 -51 -91 160 0
-15 53 91 160 0
36 65 94 160 0
29 56 95 160 0
-24 75 -100 160 0
30 69 103 160 0
-3 67 110 160 0
